InboundTrucks  = 20;
OutboundTrucks = 20;
InboundDoors   = 4;
OutboundDoors  = 4;
ReleaseTime    = [30,75,69,16,47,117,77,60,80,74,8,77,1,116,107,60,33,70,29,24];
UnloadTime     = [25,27,21,17,33,24,24,27,24,22,10,32,20,12,25,26,24,26,12,19];
LoadTime       = [15,6,12,6,15,12,5,9,17,15,6,12,17,6,13,17,9,13,17,18];
TransferTime   = [| 5,0,0,1,0,0,2,0,0,4,0,0,3,0,0,1,0,0,5,8 | 0,1,12,0,4,0,0,1,6,11,2,0,0,0,0,0,1,7,0,3 | 0,0,5,0,0,2,0,0,0,0,0,5,0,0,2,7,0,2,0,0 | 0,0,7,0,7,0,0,0,0,0,0,0,4,8,0,1,0,0,3,0 | 0,0,0,0,0,0,0,4,0,0,3,0,0,4,0,0,3,0,0,2 | 0,5,5,0,0,0,0,0,2,0,0,5,0,0,3,0,0,4,0,0 | 3,0,0,1,0,0,2,9,0,1,0,8,4,0,0,2,0,0,0,0 | 0,2,0,0,5,0,0,3,0,0,0,0,6,1,0,0,0,0,7,2 | 0,0,0,0,0,0,0,0,4,0,0,5,0,0,2,0,8,0,0,0 | 0,0,0,2,0,0,2,5,0,1,0,0,5,0,12,3,0,0,4,0 | 0,5,0,7,2,0,0,0,0,0,5,0,0,3,0,0,0,0,0,4 | 11,11,2,0,0,1,0,0,3,0,0,1,0,0,0,0,0,5,0,0 | 4,0,0,5,0,0,3,0,0,0,0,0,3,0,0,0,0,0,0,10 | 0,5,0,0,1,0,0,4,0,0,2,0,5,1,0,0,0,0,0,1 | 0,0,4,5,0,0,0,0,1,0,0,2,0,0,1,0,0,0,0,0 | 4,0,0,5,0,0,5,0,0,0,0,0,1,7,0,0,0,0,4,0 | 0,1,0,0,3,0,0,0,9,0,3,0,0,4,0,0,0,0,5,5 | 0,0,3,0,0,1,0,0,4,0,0,1,0,0,0,0,0,4,0,0 | 0,0,0,3,8,0,5,0,0,4,6,0,2,0,0,0,0,0,4,0 | 0,5,0,0,1,0,0,1,0,0,1,0,0,1,0,9,0,0,0,0 |];
